\ Model Ore Mixing Problem
\ LP format - for model browsing. Use MPS format to capture full model detail.
Minimize
  44.38526409232134 a_max_00 + 76.98229407236339 a_max_01
   + 29.23976608187134 a_max_02 + 29.33411557641537 a_max_03
   + 1639.344262295082 a_max_10 + 3333.333333333333 a_max_11
   + 877.1929824561403 a_max_12 + 33333.33333333331 a_max_13
   + 2439.024390243902 a_max_20 + 3703.703703703703 a_max_21
   + 33333.33333333331 a_max_22 + 2325.581395348837 a_max_23
   + 7142.857142857142 a_max_30 + 2857.142857142857 a_max_31
   + 6250 a_max_32 + 2439.024390243902 a_max_33 + 1086.95652173913 a_max_40
   + 1333.333333333333 a_max_41 + 1923.076923076923 a_max_42
   + 4761.904761904762 a_max_43 + 1063.829787234042 a_max_50
   + 5000 a_max_51 + 1000 a_max_52 + 1408.450704225352 a_max_53
   + 44.50378282153984 a_min_00 + 31.24023742580443 a_min_01
   + 92.59259259259261 a_min_02 + 91.65902841429883 a_min_03
   + 1123.595505617978 a_min_10 + 833.3333333333334 a_min_11
   + 2777.777777777778 a_min_12 + 680.2721088435374 a_min_13
   + 11111.11111111111 a_min_20 + 4347.826086956521 a_min_21
   + 2127.659574468085 a_min_22 + 14285.71428571428 a_min_23
   + 2777.777777777778 a_min_30 + 6666.666666666667 a_min_31
   + 2941.176470588235 a_min_32 + 11111.11111111111 a_min_33
   + 12500 a_min_40 + 4000 a_min_41 + 2083.333333333333 a_min_42
   + 1265.822784810126 a_min_43 + 1785.714285714287 a_min_50
   + 769.2307692307694 a_min_51 + 2000 a_min_52
   + 1265.822784810126 a_min_53 + 0.0445037828215398 b_min_00
   + 0.0769822940723634 b_min_01 + 0.0925925925925926 b_min_02
   + 0.0916590284142988 b_min_03 + 1.639344262295082 b_min_10
   + 3.333333333333333 b_min_11 + 2.777777777777778 b_min_12
   + 33.33333333333331 b_min_13 + 11.11111111111111 b_min_20
   + 4.347826086956522 b_min_21 + 33.33333333333331 b_min_22
   + 14.28571428571428 b_min_23 + 7.142857142857142 b_min_30
   + 6.666666666666667 b_min_31 + 6.25 b_min_32
   + 11.11111111111111 b_min_33 + 12.5 b_min_40 + 4 b_min_41
   + 2.083333333333333 b_min_42 + 4.761904761904763 b_min_43
   + 1.785714285714287 b_min_50 + 5 b_min_51 + 2 b_min_52
   + 1.408450704225352 b_min_53 + 0.0445037828215398 b_max_00
   + 0.0769822940723634 b_max_01 + 0.0925925925925926 b_max_02
   + 0.0916590284142988 b_max_03 + 1.639344262295082 b_max_10
   + 3.333333333333333 b_max_11 + 2.777777777777778 b_max_12
   + 33.33333333333331 b_max_13 + 11.11111111111111 b_max_20
   + 4.347826086956522 b_max_21 + 33.33333333333331 b_max_22
   + 14.28571428571428 b_max_23 + 7.142857142857142 b_max_30
   + 6.666666666666667 b_max_31 + 6.25 b_max_32
   + 11.11111111111111 b_max_33 + 12.5 b_max_40 + 4 b_max_41
   + 2.083333333333333 b_max_42 + 4.761904761904763 b_max_43
   + 1.785714285714287 b_max_50 + 5 b_max_51 + 2 b_max_52
   + 1.408450704225352 b_max_53
Subject To
 demand_constr_0: x_00 + x_10 + x_20 + x_30 + x_40 + x_50 = 1424.7
 capacity_constr_00: x_00 <= 538.8
 capacity_constr_10: x_10 <= 643.6
 capacity_constr_20: x_20 <= 504.3
 capacity_constr_30: x_30 <= 563.7
 capacity_constr_40: x_40 <= 401.3
 capacity_constr_50: x_50 <= 612.3
 min_quality_constr_00: 14.45 x_00 + 19.61 x_10 - 9 x_20 - 3.69 x_30
   + 7.62 x_40 - 0.58 x_50 + 1424.7 a_min_00 >= -0
 max_quality_constr_00: - 30.55 x_00 - 25.39 x_10 - 54 x_20 - 48.69 x_30
   - 37.38 x_40 - 45.58 x_50 - 1424.7 a_max_00 <= -0
 goal_quality_constr_00: - 8.02 x_00 - 2.86 x_10 - 31.47 x_20 - 26.16 x_30
   - 14.85 x_40 - 23.05 x_50 + b_min_00 - b_max_00 = -0
 min_quality_constr_10: 0.98 x_00 + 0.45 x_10 + 0.86 x_20 + 0.05 x_30
   + 1.15 x_40 + 0.78 x_50 + 1424.7 a_min_10 >= -0
 max_quality_constr_10: - 0.52 x_00 - 1.05 x_10 - 0.64 x_20 - 1.45 x_30
   - 0.35 x_40 - 0.72 x_50 - 1424.7 a_max_10 <= -0
 goal_quality_constr_10: 0.09 x_00 - 0.44 x_10 - 0.03 x_20 - 0.84 x_30
   + 0.26 x_40 - 0.11 x_50 + b_min_10 - b_max_10 = -0
 min_quality_constr_20: 0.1 x_00 + 2.57 x_10 + 1.63 x_20 + 5.2 x_30
   + 3.25 x_40 + 3.9 x_50 + 1424.7 a_min_20 >= -0
 max_quality_constr_20: - 0.4 x_00 + 2.07 x_10 + 1.13 x_20 + 4.7 x_30
   + 2.75 x_40 + 3.4 x_50 - 1424.7 a_max_20 <= -0
 goal_quality_constr_20: 0.01 x_00 + 2.48 x_10 + 1.54 x_20 + 5.11 x_30
   + 3.16 x_40 + 3.81 x_50 + b_min_20 - b_max_20 = -0
 min_quality_constr_30: 1.16 x_00 + 1.27 x_10 + 4.3 x_20 + 1.51 x_30
   + 4.39 x_40 + 5.63 x_50 + 1424.7 a_min_30 >= -0
 max_quality_constr_30: 0.66 x_00 + 0.77 x_10 + 3.8 x_20 + 1.01 x_30
   + 3.89 x_40 + 5.13 x_50 - 1424.7 a_max_30 <= -0
 goal_quality_constr_30: 0.8 x_00 + 0.91 x_10 + 3.94 x_20 + 1.15 x_30
   + 4.03 x_40 + 5.27 x_50 + b_min_30 - b_max_30 = -0
 min_quality_constr_40: 0.65 x_00 + 0.4 x_10 + 0.24 x_20 + 0.99 x_30
   + 1.07 x_40 + 0.89 x_50 + 1424.7 a_min_40 >= -0
 max_quality_constr_40: - 0.35 x_00 - 0.6 x_10 - 0.76 x_20 - 0.01 x_30
   + 0.07 x_40 - 0.11 x_50 - 1424.7 a_max_40 <= -0
 goal_quality_constr_40: 0.57 x_00 + 0.32 x_10 + 0.16 x_20 + 0.91 x_30
   + 0.99 x_40 + 0.81 x_50 + b_min_40 - b_max_40 = -0
 min_quality_constr_50: - 0.56 x_00 - 0.39 x_10 + 2.15 x_20 + 1.66 x_30
   + 1.93 x_40 - 0.46 x_50 + 1424.7 a_min_50 >= -0
 max_quality_constr_50: - 2.06 x_00 - 1.89 x_10 + 0.65 x_20 + 0.16 x_30
   + 0.43 x_40 - 1.96 x_50 - 1424.7 a_max_50 <= -0
 goal_quality_constr_50: - 1.12 x_00 - 0.95 x_10 + 1.59 x_20 + 1.1 x_30
   + 1.37 x_40 - 1.02 x_50 + b_min_50 - b_max_50 = -0
 demand_constr_1: x_01 + x_11 + x_21 + x_31 + x_41 + x_51 = 1105.5
 capacity_constr_01: x_01 <= 538.8
 capacity_constr_11: x_11 <= 643.6
 capacity_constr_21: x_21 <= 504.3
 capacity_constr_31: x_31 <= 563.7
 capacity_constr_41: x_41 <= 401.3
 capacity_constr_51: x_51 <= 612.3
 min_quality_constr_01: 14.45 x_01 + 19.61 x_11 - 9 x_21 - 3.69 x_31
   + 7.62 x_41 - 0.58 x_51 + 1105.5 a_min_01 >= -0
 max_quality_constr_01: - 30.55 x_01 - 25.39 x_11 - 54 x_21 - 48.69 x_31
   - 37.38 x_41 - 45.58 x_51 - 1105.5 a_max_01 <= -0
 goal_quality_constr_01: - 17.56 x_01 - 12.4 x_11 - 41.01 x_21 - 35.7 x_31
   - 24.39 x_41 - 32.59 x_51 + b_min_01 - b_max_01 = -0
 min_quality_constr_11: 0.98 x_01 + 0.45 x_11 + 0.86 x_21 + 0.05 x_31
   + 1.15 x_41 + 0.78 x_51 + 1105.5 a_min_11 >= -0
 max_quality_constr_11: - 0.52 x_01 - 1.05 x_11 - 0.64 x_21 - 1.45 x_31
   - 0.35 x_41 - 0.72 x_51 - 1105.5 a_max_11 <= -0
 goal_quality_constr_11: - 0.22 x_01 - 0.75 x_11 - 0.34 x_21 - 1.15 x_31
   - 0.05 x_41 - 0.42 x_51 + b_min_11 - b_max_11 = -0
 min_quality_constr_21: 0.1 x_01 + 2.57 x_11 + 1.63 x_21 + 5.2 x_31
   + 3.25 x_41 + 3.9 x_51 + 1105.5 a_min_21 >= -0
 max_quality_constr_21: - 0.4 x_01 + 2.07 x_11 + 1.13 x_21 + 4.7 x_31
   + 2.75 x_41 + 3.4 x_51 - 1105.5 a_max_21 <= -0
 goal_quality_constr_21: - 0.13 x_01 + 2.34 x_11 + 1.4 x_21 + 4.97 x_31
   + 3.02 x_41 + 3.67 x_51 + b_min_21 - b_max_21 = -0
 min_quality_constr_31: 1.16 x_01 + 1.27 x_11 + 4.3 x_21 + 1.51 x_31
   + 4.39 x_41 + 5.63 x_51 + 1105.5 a_min_31 >= -0
 max_quality_constr_31: 0.66 x_01 + 0.77 x_11 + 3.8 x_21 + 1.01 x_31
   + 3.89 x_41 + 5.13 x_51 - 1105.5 a_max_31 <= -0
 goal_quality_constr_31: 1.01 x_01 + 1.12 x_11 + 4.15 x_21 + 1.36 x_31
   + 4.24 x_41 + 5.48 x_51 + b_min_31 - b_max_31 = -0
 min_quality_constr_41: 0.65 x_01 + 0.4 x_11 + 0.24 x_21 + 0.99 x_31
   + 1.07 x_41 + 0.89 x_51 + 1105.5 a_min_41 >= -0
 max_quality_constr_41: - 0.35 x_01 - 0.6 x_11 - 0.76 x_21 - 0.01 x_31
   + 0.07 x_41 - 0.11 x_51 - 1105.5 a_max_41 <= -0
 goal_quality_constr_41: 0.4 x_01 + 0.15 x_11 - 0.01 x_21 + 0.74 x_31
   + 0.82 x_41 + 0.64 x_51 + b_min_41 - b_max_41 = -0
 min_quality_constr_51: - 0.56 x_01 - 0.39 x_11 + 2.15 x_21 + 1.66 x_31
   + 1.93 x_41 - 0.46 x_51 + 1105.5 a_min_51 >= -0
 max_quality_constr_51: - 2.06 x_01 - 1.89 x_11 + 0.65 x_21 + 0.16 x_31
   + 0.43 x_41 - 1.96 x_51 - 1105.5 a_max_51 <= -0
 goal_quality_constr_51: - 1.86 x_01 - 1.69 x_11 + 0.85 x_21 + 0.36 x_31
   + 0.63 x_41 - 1.76 x_51 + b_min_51 - b_max_51 = -0
 demand_constr_2: x_02 + x_12 + x_22 + x_32 + x_42 + x_52 = 1359.3
 capacity_constr_02: x_02 <= 538.8
 capacity_constr_12: x_12 <= 643.6
 capacity_constr_22: x_22 <= 504.3
 capacity_constr_32: x_32 <= 563.7
 capacity_constr_42: x_42 <= 401.3
 capacity_constr_52: x_52 <= 612.3
 min_quality_constr_02: 14.45 x_02 + 19.61 x_12 - 9 x_22 - 3.69 x_32
   + 7.62 x_42 - 0.58 x_52 + 1359.3 a_min_02 >= -0
 max_quality_constr_02: - 30.55 x_02 - 25.39 x_12 - 54 x_22 - 48.69 x_32
   - 37.38 x_42 - 45.58 x_52 - 1359.3 a_max_02 <= -0
 goal_quality_constr_02: 3.65 x_02 + 8.81 x_12 - 19.8 x_22 - 14.49 x_32
   - 3.18 x_42 - 11.38 x_52 + b_min_02 - b_max_02 = -0
 min_quality_constr_12: 0.98 x_02 + 0.45 x_12 + 0.86 x_22 + 0.05 x_32
   + 1.15 x_42 + 0.78 x_52 + 1359.3 a_min_12 >= -0
 max_quality_constr_12: - 0.52 x_02 - 1.05 x_12 - 0.64 x_22 - 1.45 x_32
   - 0.35 x_42 - 0.72 x_52 - 1359.3 a_max_12 <= -0
 goal_quality_constr_12: 0.62 x_02 + 0.09 x_12 + 0.5 x_22 - 0.31 x_32
   + 0.79 x_42 + 0.42 x_52 + b_min_12 - b_max_12 = -0
 min_quality_constr_22: 0.1 x_02 + 2.57 x_12 + 1.63 x_22 + 5.2 x_32
   + 3.25 x_42 + 3.9 x_52 + 1359.3 a_min_22 >= -0
 max_quality_constr_22: - 0.4 x_02 + 2.07 x_12 + 1.13 x_22 + 4.7 x_32
   + 2.75 x_42 + 3.4 x_52 - 1359.3 a_max_22 <= -0
 goal_quality_constr_22: - 0.37 x_02 + 2.1 x_12 + 1.16 x_22 + 4.73 x_32
   + 2.78 x_42 + 3.43 x_52 + b_min_22 - b_max_22 = -0
 min_quality_constr_32: 1.16 x_02 + 1.27 x_12 + 4.3 x_22 + 1.51 x_32
   + 4.39 x_42 + 5.63 x_52 + 1359.3 a_min_32 >= -0
 max_quality_constr_32: 0.66 x_02 + 0.77 x_12 + 3.8 x_22 + 1.01 x_32
   + 3.89 x_42 + 5.13 x_52 - 1359.3 a_max_32 <= -0
 goal_quality_constr_32: 0.82 x_02 + 0.93 x_12 + 3.96 x_22 + 1.17 x_32
   + 4.05 x_42 + 5.29 x_52 + b_min_32 - b_max_32 = -0
 min_quality_constr_42: 0.65 x_02 + 0.4 x_12 + 0.24 x_22 + 0.99 x_32
   + 1.07 x_42 + 0.89 x_52 + 1359.3 a_min_42 >= -0
 max_quality_constr_42: - 0.35 x_02 - 0.6 x_12 - 0.76 x_22 - 0.01 x_32
   + 0.07 x_42 - 0.11 x_52 - 1359.3 a_max_42 <= -0
 goal_quality_constr_42: 0.17 x_02 - 0.08 x_12 - 0.24 x_22 + 0.51 x_32
   + 0.59 x_42 + 0.41 x_52 + b_min_42 - b_max_42 = -0
 min_quality_constr_52: - 0.56 x_02 - 0.39 x_12 + 2.15 x_22 + 1.66 x_32
   + 1.93 x_42 - 0.46 x_52 + 1359.3 a_min_52 >= -0
 max_quality_constr_52: - 2.06 x_02 - 1.89 x_12 + 0.65 x_22 + 0.16 x_32
   + 0.43 x_42 - 1.96 x_52 - 1359.3 a_max_52 <= -0
 goal_quality_constr_52: - 1.06 x_02 - 0.89 x_12 + 1.65 x_22 + 1.16 x_32
   + 1.43 x_42 - 0.96 x_52 + b_min_52 - b_max_52 = -0
 demand_constr_3: x_03 + x_13 + x_23 + x_33 + x_43 + x_53 = 1012.5
 capacity_constr_03: x_03 <= 538.8
 capacity_constr_13: x_13 <= 643.6
 capacity_constr_23: x_23 <= 504.3
 capacity_constr_33: x_33 <= 563.7
 capacity_constr_43: x_43 <= 401.3
 capacity_constr_53: x_53 <= 612.3
 min_quality_constr_03: 14.45 x_03 + 19.61 x_13 - 9 x_23 - 3.69 x_33
   + 7.62 x_43 - 0.58 x_53 + 1012.5 a_min_03 >= -0
 max_quality_constr_03: - 30.55 x_03 - 25.39 x_13 - 54 x_23 - 48.69 x_33
   - 37.38 x_43 - 45.58 x_53 - 1012.5 a_max_03 <= -0
 goal_quality_constr_03: 3.54 x_03 + 8.7 x_13 - 19.91 x_23 - 14.6 x_33
   - 3.29 x_43 - 11.49 x_53 + b_min_03 - b_max_03 = -0
 min_quality_constr_13: 0.98 x_03 + 0.45 x_13 + 0.86 x_23 + 0.05 x_33
   + 1.15 x_43 + 0.78 x_53 + 1012.5 a_min_13 >= -0
 max_quality_constr_13: - 0.52 x_03 - 1.05 x_13 - 0.64 x_23 - 1.45 x_33
   - 0.35 x_43 - 0.72 x_53 - 1012.5 a_max_13 <= -0
 goal_quality_constr_13: - 0.49 x_03 - 1.02 x_13 - 0.61 x_23 - 1.42 x_33
   - 0.32 x_43 - 0.69 x_53 + b_min_13 - b_max_13 = -0
 min_quality_constr_23: 0.1 x_03 + 2.57 x_13 + 1.63 x_23 + 5.2 x_33
   + 3.25 x_43 + 3.9 x_53 + 1012.5 a_min_23 >= -0
 max_quality_constr_23: - 0.4 x_03 + 2.07 x_13 + 1.13 x_23 + 4.7 x_33
   + 2.75 x_43 + 3.4 x_53 - 1012.5 a_max_23 <= -0
 goal_quality_constr_23: 0.03 x_03 + 2.5 x_13 + 1.56 x_23 + 5.13 x_33
   + 3.18 x_43 + 3.83 x_53 + b_min_23 - b_max_23 = -0
 min_quality_constr_33: 1.16 x_03 + 1.27 x_13 + 4.3 x_23 + 1.51 x_33
   + 4.39 x_43 + 5.63 x_53 + 1012.5 a_min_33 >= -0
 max_quality_constr_33: 0.66 x_03 + 0.77 x_13 + 3.8 x_23 + 1.01 x_33
   + 3.89 x_43 + 5.13 x_53 - 1012.5 a_max_33 <= -0
 goal_quality_constr_33: 1.07 x_03 + 1.18 x_13 + 4.21 x_23 + 1.42 x_33
   + 4.3 x_43 + 5.54 x_53 + b_min_33 - b_max_33 = -0
 min_quality_constr_43: 0.65 x_03 + 0.4 x_13 + 0.24 x_23 + 0.99 x_33
   + 1.07 x_43 + 0.89 x_53 + 1012.5 a_min_43 >= -0
 max_quality_constr_43: - 0.35 x_03 - 0.6 x_13 - 0.76 x_23 - 0.01 x_33
   + 0.07 x_43 - 0.11 x_53 - 1012.5 a_max_43 <= -0
 goal_quality_constr_43: - 0.14 x_03 - 0.39 x_13 - 0.55 x_23 + 0.2 x_33
   + 0.28 x_43 + 0.1 x_53 + b_min_43 - b_max_43 = -0
 min_quality_constr_53: - 0.56 x_03 - 0.39 x_13 + 2.15 x_23 + 1.66 x_33
   + 1.93 x_43 - 0.46 x_53 + 1012.5 a_min_53 >= -0
 max_quality_constr_53: - 2.06 x_03 - 1.89 x_13 + 0.65 x_23 + 0.16 x_33
   + 0.43 x_43 - 1.96 x_53 - 1012.5 a_max_53 <= -0
 goal_quality_constr_53: - 1.35 x_03 - 1.18 x_13 + 1.36 x_23 + 0.87 x_33
   + 1.14 x_43 - 1.25 x_53 + b_min_53 - b_max_53 = -0
Bounds
End
